words_hard_train/1553.qaiger
aag 37 14 0 1 23
2
4
8
10
18
20
26
28
34
36
44
46
56
60
74
6 2 5
12 9 10
14 7 13
16 3 4
22 19 20
24 17 23
30 26 28
32 24 30
38 34 37
40 18 21
42 39 41
48 45 46
50 35 36
52 49 51
54 44 47
58 55 56
62 58 60
64 52 63
66 42 65
68 32 67
70 14 69
72 8 11
74 71 73
i0 1 x2[6]
i1 2 y1[6]
i2 1 x2[7]
i3 2 y1[7]
i4 1 x2[3]
i5 2 y1[3]
i6 1 x2[4]
i7 1 x2[5]
i8 1 x2[2]
i9 2 y1[2]
i10 1 x2[1]
i11 2 y1[1]
i12 2 y1[0]
i13 1 x2[0]
o0 bv[0]
c
simplified
  <=
    or
      2 y1
      abs
        -208
    xor
      1
      1 x2
