words_hard_train/1553.qaiger.qdimacs
p cnf 37 70
a 1 4 9 13 14 17 22 30 0
e 2 3 5 6 7 8 10 11 12 15 16 18 19 20 21 23 24 25 26 27 28 29 31 32 33 34 35 36 37 0
-1 2 3 0
1 -3 0
-2 -3 0
4 -5 6 0
-4 -6 0
5 -6 0
3 6 7 0
-3 -7 0
-6 -7 0
1 -2 8 0
-1 -8 0
2 -8 0
9 -10 11 0
-9 -11 0
10 -11 0
8 11 12 0
-8 -12 0
-11 -12 0
-13 -14 15 0
13 -15 0
14 -15 0
-12 -15 16 0
12 -16 0
15 -16 0
-17 18 19 0
17 -19 0
-18 -19 0
-9 10 20 0
9 -20 0
-10 -20 0
19 20 21 0
-19 -21 0
-20 -21 0
22 -23 24 0
-22 -24 0
23 -24 0
17 -18 25 0
-17 -25 0
18 -25 0
24 25 26 0
-24 -26 0
-25 -26 0
-22 23 27 0
22 -27 0
-23 -27 0
27 -28 29 0
-27 -29 0
28 -29 0
-29 -30 31 0
29 -31 0
30 -31 0
-26 31 32 0
26 -32 0
-31 -32 0
-21 32 33 0
21 -33 0
-32 -33 0
-16 33 34 0
16 -34 0
-33 -34 0
-7 34 35 0
7 -35 0
-34 -35 0
-4 5 36 0
4 -36 0
-5 -36 0
35 36 37 0
-35 -37 0
-36 -37 0
37 0
